data;


param FN:= 3;
param D:= 100;
param U_Original:=
         1         1        9.245127e-01
         2         1        7.379884e-01
         3         1        9.612720e-01
         4         1        2.043358e-03
         5         1       -9.409631e-01
         6         1        4.013198e-01
         7         1       -8.422564e-01
         8         1       -3.037620e-01
         9         1        4.918350e-01
        10         1       -1.232042e+00
        11         1        1.507748e+00
        12         1       -1.176581e+00
        13         1       -6.817738e-01
        14         1       -1.328135e-01
        15         1        4.463422e-02
        16         1        3.221819e-01
        17         1       -1.492219e+00
        18         1        1.019960e+00
        19         1       -1.515565e-02
        20         1        3.998855e-01
        21         1       -7.503733e-01
        22         1       -1.192696e+00
        23         1       -5.255381e-01
        24         1        9.795083e-01
        25         1       -7.651544e-01
        26         1        4.606452e-01
        27         1        4.191040e-01
        28         1        3.492463e-02
        29         1        8.818440e-01
        30         1       -4.157193e-01
        31         1       -6.531727e-01
        32         1        3.753415e-01
        33         1        2.471572e-01
        34         1        8.280656e-01
        35         1       -2.305011e+00
        36         1       -3.101141e-01
        37         1       -6.290933e-02
        38         1        3.977806e-01
        39         1       -1.560441e-02
        40         1        5.067127e-01
        41         1       -3.322632e-01
        42         1       -3.004107e-02
        43         1       -4.100039e-01
        44         1       -8.149531e-01
        45         1        6.549877e-01
        46         1       -1.308850e+00
        47         1        1.518627e-02
        48         1       -7.876754e-01
        49         1       -1.487393e+00
        50         1       -1.449285e+00
        51         1        1.794684e+00
        52         1       -1.724897e+00
        53         1        9.960130e-01
        54         1        3.079664e-01
        55         1       -6.193158e-01
        56         1        9.965806e-01
        57         1        1.417025e+00
        58         1        7.332427e-02
        59         1        1.333117e+00
        60         1        4.251501e-01
        61         1        1.620060e+00
        62         1        7.515604e-01
        63         1        2.814215e-01
        64         1        1.145392e+00
        65         1        5.367581e-01
        66         1       -1.878407e+00
        67         1       -4.824096e-01
        68         1       -4.310943e-01
        69         1       -1.018007e+00
        70         1       -1.954109e-01
        71         1        8.706443e-01
        72         1       -4.125056e-01
        73         1        9.805560e-01
        74         1       -4.466823e-01
        75         1        8.993480e-01
        76         1       -1.662287e+00
        77         1        3.476335e-01
        78         1       -1.259243e+00
        79         1        1.146044e+00
        80         1       -3.439440e-01
        81         1        6.580117e-01
        82         1        1.265293e+00
        83         1       -7.740826e-01
        84         1        1.415806e+00
        85         1       -7.246960e-01
        86         1       -1.425509e+00
        87         1       -1.647012e+00
        88         1       -2.448562e-01
        89         1       -1.943205e-01
        90         1       -1.180053e+00
        91         1        6.998676e-01
        92         1       -1.435915e+00
        93         1       -9.365885e-02
        94         1        2.254957e+00
        95         1        4.092863e-01
        96         1       -8.387648e-01
        97         1       -4.599174e-01
        98         1        8.187938e-01
        99         1        1.697614e+00
       100         1       -5.208255e-01
         1         2        3.923441e-01
         2         2       -3.714621e-02
         3         2        5.887173e-01
         4         2       -6.373826e-01
         5         2        1.522312e-01
         6         2       -9.049698e-01
         7         2        1.194299e+00
         8         2        1.297221e-01
         9         2        2.055810e-01
        10         2       -2.402914e-01
        11         2        1.031912e+00
        12         2       -7.539474e-01
        13         2       -9.576352e-01
        14         2        1.505835e+00
        15         2        2.973674e-01
        16         2        2.153503e-01
        17         2        2.093083e+00
        18         2       -2.561888e+00
        19         2        9.803364e-01
        20         2        1.538100e+00
        21         2       -6.364384e-01
        22         2        6.356359e-01
        23         2       -7.485637e-01
        24         2       -1.285597e-01
        25         2        2.987817e+00
        26         2       -1.019463e+00
        27         2        9.329654e-01
        28         2        5.337744e-01
        29         2       -1.591683e+00
        30         2       -1.700623e+00
        31         2        2.122024e+00
        32         2        1.041603e+00
        33         2        2.466710e-01
        34         2       -5.204785e-01
        35         2       -2.444106e-01
        36         2       -8.283157e-01
        37         2        2.141576e-01
        38         2       -2.200072e-01
        39         2       -7.426660e-01
        40         2       -2.047485e+00
        41         2        7.534491e-01
        42         2        1.289554e-01
        43         2       -2.980544e-01
        44         2       -6.334965e-02
        45         2        2.830136e-01
        46         2        1.738052e+00
        47         2        5.580255e-01
        48         2        2.140311e+00
        49         2       -1.047552e-01
        50         2        7.132095e-01
        51         2        1.422101e+00
        52         2        3.651635e-02
        53         2       -2.046069e+00
        54         2       -1.627319e-01
        55         2       -1.153050e+00
        56         2        1.723384e+00
        57         2       -1.143417e-02
        58         2        1.737216e+00
        59         2       -2.438096e-01
        60         2       -1.166839e-01
        61         2        3.089004e-01
        62         2       -4.293707e-01
        63         2        2.022075e-01
        64         2        4.816645e-01
        65         2       -1.647482e+00
        66         2        9.536248e-01
        67         2       -6.026787e-01
        68         2        4.007887e-01
        69         2       -6.820423e-01
        70         2       -7.589027e-01
        71         2        2.935800e-01
        72         2       -1.386112e+00
        73         2       -2.705069e-01
        74         2        1.475288e+00
        75         2       -1.361227e+00
        76         2        2.553765e-01
        77         2       -8.441383e-01
        78         2       -8.589452e-02
        79         2        7.527432e-01
        80         2        1.916031e+00
        81         2       -4.915512e-01
        82         2        2.643361e+00
        83         2       -1.797704e+00
        84         2       -1.375658e+00
        85         2        9.291837e-01
        86         2        5.638081e-02
        87         2       -2.252907e+00
        88         2       -8.835146e-01
        89         2       -4.092503e-01
        90         2       -5.407289e-01
        91         2        1.103331e+00
        92         2        4.025458e-01
        93         2        1.265086e-01
        94         2       -1.598033e+00
        95         2        4.170748e-01
        96         2        1.274066e+00
        97         2       -1.715385e+00
        98         2       -1.807626e-01
        99         2        1.540749e-01
       100         2        3.906676e-01
         1         3       -1.011436e+00
         2         3       -8.001391e-01
         3         3       -7.890720e-03
         4         3        6.843802e-02
         5         3        1.274215e+00
         6         3       -1.804298e+00
         7         3        1.164085e+00
         8         3       -3.800085e-01
         9         3        1.850809e-01
        10         3        7.919818e-02
        11         3        1.098304e+00
        12         3        6.898881e-01
        13         3        5.868976e-01
        14         3        2.564326e+00
        15         3       -1.926540e+00
        16         3        1.633725e+00
        17         3       -9.905989e-01
        18         3       -1.673240e+00
        19         3       -8.228403e-01
        20         3       -1.431787e+00
        21         3       -8.871509e-02
        22         3        1.082799e-01
        23         3        1.152956e+00
        24         3        5.147963e-01
        25         3       -1.066823e+00
        26         3        1.268808e+00
        27         3        6.574958e-01
        28         3        6.479347e-01
        29         3       -3.410618e-01
        30         3       -4.185757e-01
        31         3        1.897559e-01
        32         3        9.187234e-03
        33         3       -6.686256e-01
        34         3        1.159615e+00
        35         3        3.811257e-02
        36         3       -1.651255e+00
        37         3       -6.488099e-01
        38         3       -5.569334e-01
        39         3        2.162865e-01
        40         3        7.457122e-01
        41         3       -1.250807e+00
        42         3        2.497857e+00
        43         3       -6.349471e-01
        44         3       -8.499684e-01
        45         3       -2.546284e-01
        46         3       -5.056353e-01
        47         3       -1.182432e+00
        48         3        1.481016e+00
        49         3       -1.358962e-01
        50         3        4.481420e-01
        51         3        2.477428e+00
        52         3       -5.001783e-01
        53         3       -9.245375e-01
        54         3        6.678221e-01
        55         3        1.925670e-01
        56         3        4.197393e-01
        57         3       -1.857033e+00
        58         3       -8.668439e-02
        59         3        7.358240e-02
        60         3        1.411734e+00
        61         3       -5.580565e-01
        62         3       -4.883162e-01
        63         3       -2.751237e+00
        64         3       -1.126729e+00
        65         3        1.347031e-02
        66         3        7.964801e-01
        67         3        2.588358e+00
        68         3        5.479665e-01
        69         3       -7.838557e-01
        70         3        2.772157e-01
        71         3        2.944698e+00
        72         3        1.233097e+00
        73         3       -1.052378e-01
        74         3       -9.510578e-02
        75         3        1.933512e-01
        76         3        1.257168e+00
        77         3        3.335041e-01
        78         3        7.545400e-01
        79         3       -1.082516e+00
        80         3        2.505843e-01
        81         3       -2.045345e+00
        82         3       -1.680170e-01
        83         3       -5.273404e-01
        84         3       -6.827949e-01
        85         3        1.418309e+00
        86         3        3.565210e-01
        87         3       -5.877458e-03
        88         3       -1.084830e+00
        89         3       -1.034202e-01
        90         3       -1.494262e+00
        91         3        2.968239e-01
        92         3        9.398099e-01
        93         3       -1.537278e-01
        94         3       -8.826439e-01
        95         3       -1.348607e+00
        96         3        1.562077e-01
        97         3        9.404089e-01
        98         3        3.143857e-01
        99         3        9.956036e-01
       100         3       -5.823336e-01
         1         4       -1.508029e+00
         2         4       -1.270988e+00
         3         4        3.326022e-01
         4         4       -5.013340e-01
         5         4        6.233433e-01
         6         4        8.398126e-01
         7         4        1.393918e+00
         8         4       -1.132984e+00
         9         4       -3.201182e-01
        10         4       -9.388054e-02
        11         4       -1.971910e-01
        12         4       -1.361822e-01
        13         4        5.473286e-01
        14         4       -4.448894e-02
        15         4       -3.658650e-01
        16         4        9.040822e-01
        17         4        8.988354e-01
        18         4        1.333891e-01
        19         4       -1.121126e+00
        20         4        4.784498e-01
        21         4       -1.120917e+00
        22         4       -1.633392e-01
        23         4        3.641165e-01
        24         4       -1.367346e+00
        25         4        2.595198e-01
        26         4        1.142460e+00
        27         4       -3.720361e-01
        28         4        8.802591e-01
        29         4       -6.045975e-01
        30         4        4.334945e-02
        31         4        4.175410e-01
        32         4       -5.775386e-01
        33         4       -6.532644e-01
        34         4       -8.659483e-01
        35         4        1.860494e-01
        36         4       -6.037916e-01
        37         4       -1.224738e+00
        38         4        1.183514e+00
        39         4       -1.617954e+00
        40         4       -1.236859e+00
        41         4       -6.078363e-01
        42         4        1.436476e+00
        43         4        6.879592e-01
        44         4       -6.937514e-01
        45         4        2.582755e-01
        46         4       -1.103936e+00
        47         4        1.994654e+00
        48         4       -1.839408e-01
        49         4       -1.828459e+00
        50         4       -7.285235e-01
        51         4        1.656395e-01
        52         4        8.376088e-02
        53         4        1.722009e+00
        54         4       -3.268228e-01
        55         4       -1.494713e+00
        56         4       -3.387770e-01
        57         4        1.142860e+00
        58         4        1.055794e+00
        59         4        1.075185e+00
        60         4        1.506748e+00
        61         4        9.869950e-01
        62         4       -3.382396e-01
        63         4        8.417236e-01
        64         4        8.158864e-01
        65         4        4.225365e-01
        66         4       -4.578593e-01
        67         4       -1.577688e-01
        68         4        1.225728e+00
        69         4        1.529706e+00
        70         4       -1.043143e+00
        71         4        1.191975e+00
        72         4       -1.292456e+00
        73         4       -2.040866e-01
        74         4       -1.547907e+00
        75         4       -1.142835e-03
        76         4        3.857086e-01
        77         4        3.343325e-02
        78         4       -2.425340e+00
        79         4        6.431866e-01
        80         4       -1.624623e-01
        81         4        2.886589e-01
        82         4       -1.223745e-01
        83         4       -4.626474e-01
        84         4       -1.276764e+00
        85         4       -1.045995e+00
        86         4       -1.799226e+00
        87         4        8.485835e-01
        88         4        1.034680e+00
        89         4       -4.368224e-01
        90         4        1.341845e+00
        91         4        4.855647e-01
        92         4       -9.976363e-01
        93         4        2.111253e+00
        94         4       -3.298823e-03
        95         4       -1.607182e+00
        96         4        1.337447e+00
        97         4       -1.183385e+00
        98         4       -1.149536e-01
        99         4        1.291884e-01
       100         4        4.648391e-01
         1         5        9.751405e-02
         2         5        4.338542e-01
         3         5        1.012254e+00
         4         5        1.344905e-01
         5         5        3.166007e-01
         6         5        6.638470e-01
         7         5        4.409660e-01
         8         5       -3.786034e-01
         9         5       -1.242941e+00
        10         5       -1.182284e+00
        11         5        2.683347e+00
        12         5       -3.731399e-01
        13         5        7.944082e-01
        14         5       -5.424552e-01
        15         5        3.670693e-01
        16         5       -8.900153e-01
        17         5       -1.303425e+00
        18         5        8.462107e-01
        19         5       -5.106966e-01
        20         5        1.162434e+00
        21         5        1.374601e+00
        22         5        7.722125e-01
        23         5        1.109308e-01
        24         5        1.492380e+00
        25         5       -2.195257e-01
        26         5        1.100634e+00
        27         5       -1.408050e+00
        28         5       -1.822077e-01
        29         5       -1.802987e-01
        30         5        8.362588e-01
        31         5       -6.152773e-01
        32         5        1.681453e+00
        33         5        2.404385e-01
        34         5       -2.431823e+00
        35         5       -2.893214e-01
        36         5        4.886614e-01
        37         5        3.951936e-01
        38         5       -7.344489e-01
        39         5       -1.862329e-01
        40         5       -2.589311e-02
        41         5       -9.004946e-01
        42         5        1.250604e+00
        43         5        1.385883e+00
        44         5       -4.769315e-01
        45         5       -1.500957e-01
        46         5        1.655371e+00
        47         5        4.589651e-01
        48         5        3.351245e-01
        49         5        2.180308e+00
        50         5       -1.264425e+00
        51         5        8.692948e-01
        52         5       -1.134984e+00
        53         5       -3.166425e-01
        54         5       -5.881286e-01
        55         5       -1.060389e+00
        56         5        1.084500e+00
        57         5        9.700809e-01
        58         5       -6.219951e-01
        59         5        3.072978e-01
        60         5        4.925722e-01
        61         5        4.174045e-01
        62         5        1.399459e+00
        63         5       -5.818373e-02
        64         5        8.543083e-01
        65         5        2.520724e+00
        66         5       -3.800869e-01
        67         5       -6.730519e-02
        68         5       -9.554863e-01
        69         5        2.709656e-02
        70         5        1.308983e+00
        71         5       -6.860506e-02
        72         5       -5.613912e-01
        73         5       -1.118054e+00
        74         5        2.296752e-01
        75         5       -3.962079e-01
        76         5       -9.948532e-01
        77         5        9.762775e-01
        78         5       -6.463648e-01
        79         5        7.241081e-01
        80         5       -1.851692e+00
        81         5        4.825540e-01
        82         5        6.707377e-01
        83         5       -1.317947e-01
        84         5       -2.314131e+00
        85         5        1.047336e+00
        86         5        1.531427e+00
        87         5        1.314816e+00
        88         5       -2.159373e+00
        89         5        1.207295e+00
        90         5       -9.912276e-01
        91         5       -9.932756e-01
        92         5        3.631508e-01
        93         5       -3.711294e-01
        94         5        8.867597e-02
        95         5        5.974838e-01
        96         5        8.070416e-01
        97         5        1.754391e+00
        98         5       -4.043938e-01
        99         5       -1.179741e+00
       100         5       -5.467073e-01
;
param X_Original:=
    1        1.157223e+00
    2       -3.889604e-01
    3        8.443727e-01
    4       -1.494178e-01
    5        6.095061e-01
    6       -8.319661e-01
    7        1.241480e+00
    8        8.791846e-02
    9       -1.246420e-01
   10        1.909945e+00
   11       -4.318419e-02
   12        1.407831e+00
   13       -2.058652e+00
   14        4.065304e+00
   15        8.086128e-01
   16       -8.649123e-02
   17        3.656460e-01
   18       -1.145267e+00
   19       -2.354685e-01
   20        1.935299e+00
   21        1.312314e+00
   22       -7.075780e-01
   23       -9.273028e-01
   24        1.130774e+00
   25       -9.929064e-01
   26       -1.032446e+00
   27       -6.572257e-01
   28        1.190949e+00
   29       -2.563917e+00
   30        1.374555e+00
   31        5.915498e-01
   32        1.919507e-01
   33       -1.155023e+00
   34       -1.208935e-01
   35       -3.624504e-01
   36        3.020953e-01
   37        1.110246e-01
   38       -1.072152e+00
   39        2.043489e-01
   40       -7.312099e-01
   41        1.402080e+00
   42       -8.274422e-01
   43       -1.599269e-01
   44        6.880751e-02
   45       -2.135764e+00
   46        2.778822e+00
   47       -1.364199e+00
   48        2.779424e-01
   49        5.078052e-01
   50        3.933425e-01
   51        5.267537e-01
   52        1.533203e+00
   53       -2.188834e+00
   54       -7.413866e-01
   55       -1.419277e+00
   56        5.451615e-01
   57        1.597109e-01
   58       -7.190898e-01
   59        8.072420e-02
   60        1.695123e+00
   61        9.504266e-01
   62        1.367522e-01
   63        1.222384e+00
   64       -4.908469e-01
   65        5.945041e-01
   66        6.986108e-01
   67       -1.846952e-01
   68        1.079643e+00
   69        7.521157e-01
   70        1.620133e+00
   71       -6.820023e-01
   72       -2.460291e-01
   73       -2.170089e-01
   74       -6.843398e-01
   75       -6.127545e-02
   76       -5.523126e-01
   77       -6.100526e-01
   78       -3.861880e-01
   79       -9.844617e-01
   80       -5.515617e-02
   81        9.573268e-01
   82       -1.601065e+00
   83       -3.777537e+00
   84       -3.608269e-01
   85        3.051332e+00
   86        2.992257e-01
   87       -7.010810e-01
   88       -1.638495e+00
   89       -2.226094e-01
   90        1.458760e+00
   91        1.547544e+00
   92        3.810829e-01
   93        1.944239e+00
   94       -2.359782e-01
   95        7.623480e-01
   96       -6.609815e-01
   97       -2.101479e+00
   98       -1.891397e+00
   99       -1.025467e+00
  100        5.870280e-01
;
param outliervec_original :=
    1    1
    2    1
    3    1
    4    1
    5    1
    6    1
    7    1
    8    1
    9    1
   10    1
   11    1
   12    1
   13    0
   14    0
   15    1
   16    1
   17    1
   18    1
   19    1
   20    0
   21    1
   22    1
   23    1
   24    1
   25    1
   26    0
   27    1
   28    1
   29    1
   30    1
   31    1
   32    1
   33    1
   34    1
   35    1
   36    1
   37    1
   38    1
   39    1
   40    1
   41    1
   42    1
   43    1
   44    1
   45    1
   46    0
   47    0
   48    1
   49    0
   50    0
   51    1
   52    1
   53    1
   54    1
   55    1
   56    1
   57    1
   58    1
   59    0
   60    1
   61    0
   62    1
   63    1
   64    1
   65    1
   66    1
   67    1
   68    1
   69    1
   70    1
   71    1
   72    1
   73    1
   74    1
   75    1
   76    1
   77    0
   78    1
   79    1
   80    1
   81    1
   82    1
   83    0
   84    1
   85    0
   86    1
   87    1
   88    1
   89    0
   90    1
   91    1
   92    1
   93    1
   94    1
   95    1
   96    1
   97    1
   98    1
   99    1
  100    1
;
param d:= 57;
param r:=5;
param p:=0.860000;
param M:=1000;
param U:=
         1         1        9.245127e-01
         2         1        7.379884e-01
         3         1        9.612720e-01
         4         1        2.043358e-03
         5         1       -9.409631e-01
         6         1        4.013198e-01
         7         1       -8.422564e-01
         8         1       -3.037620e-01
         9         1        4.918350e-01
        10         1        1.507748e+00
        11         1       -6.817738e-01
        12         1        4.463422e-02
        13         1        3.221819e-01
        14         1        3.998855e-01
        15         1       -5.255381e-01
        16         1        4.606452e-01
        17         1        3.492463e-02
        18         1        8.818440e-01
        19         1       -2.305011e+00
        20         1       -3.101141e-01
        21         1       -6.290933e-02
        22         1        3.977806e-01
        23         1       -3.322632e-01
        24         1       -3.004107e-02
        25         1       -4.100039e-01
        26         1       -8.149531e-01
        27         1       -1.308850e+00
        28         1       -1.487393e+00
        29         1       -1.449285e+00
        30         1        1.794684e+00
        31         1       -1.724897e+00
        32         1        9.960130e-01
        33         1        3.079664e-01
        34         1       -6.193158e-01
        35         1        1.417025e+00
        36         1        1.333117e+00
        37         1        1.620060e+00
        38         1        7.515604e-01
        39         1        2.814215e-01
        40         1       -1.878407e+00
        41         1       -4.310943e-01
        42         1        8.706443e-01
        43         1        9.805560e-01
        44         1       -1.662287e+00
        45         1        3.476335e-01
        46         1       -1.259243e+00
        47         1        6.580117e-01
        48         1       -7.740826e-01
        49         1       -1.425509e+00
        50         1       -2.448562e-01
        51         1       -1.943205e-01
        52         1        6.998676e-01
        53         1       -1.435915e+00
        54         1        4.092863e-01
        55         1       -4.599174e-01
        56         1        1.697614e+00
        57         1       -5.208255e-01
         1         2        3.923441e-01
         2         2       -3.714621e-02
         3         2        5.887173e-01
         4         2       -6.373826e-01
         5         2        1.522312e-01
         6         2       -9.049698e-01
         7         2        1.194299e+00
         8         2        1.297221e-01
         9         2        2.055810e-01
        10         2        1.031912e+00
        11         2       -9.576352e-01
        12         2        2.973674e-01
        13         2        2.153503e-01
        14         2        1.538100e+00
        15         2       -7.485637e-01
        16         2       -1.019463e+00
        17         2        5.337744e-01
        18         2       -1.591683e+00
        19         2       -2.444106e-01
        20         2       -8.283157e-01
        21         2        2.141576e-01
        22         2       -2.200072e-01
        23         2        7.534491e-01
        24         2        1.289554e-01
        25         2       -2.980544e-01
        26         2       -6.334965e-02
        27         2        1.738052e+00
        28         2       -1.047552e-01
        29         2        7.132095e-01
        30         2        1.422101e+00
        31         2        3.651635e-02
        32         2       -2.046069e+00
        33         2       -1.627319e-01
        34         2       -1.153050e+00
        35         2       -1.143417e-02
        36         2       -2.438096e-01
        37         2        3.089004e-01
        38         2       -4.293707e-01
        39         2        2.022075e-01
        40         2        9.536248e-01
        41         2        4.007887e-01
        42         2        2.935800e-01
        43         2       -2.705069e-01
        44         2        2.553765e-01
        45         2       -8.441383e-01
        46         2       -8.589452e-02
        47         2       -4.915512e-01
        48         2       -1.797704e+00
        49         2        5.638081e-02
        50         2       -8.835146e-01
        51         2       -4.092503e-01
        52         2        1.103331e+00
        53         2        4.025458e-01
        54         2        4.170748e-01
        55         2       -1.715385e+00
        56         2        1.540749e-01
        57         2        3.906676e-01
         1         3       -1.011436e+00
         2         3       -8.001391e-01
         3         3       -7.890720e-03
         4         3        6.843802e-02
         5         3        1.274215e+00
         6         3       -1.804298e+00
         7         3        1.164085e+00
         8         3       -3.800085e-01
         9         3        1.850809e-01
        10         3        1.098304e+00
        11         3        5.868976e-01
        12         3       -1.926540e+00
        13         3        1.633725e+00
        14         3       -1.431787e+00
        15         3        1.152956e+00
        16         3        1.268808e+00
        17         3        6.479347e-01
        18         3       -3.410618e-01
        19         3        3.811257e-02
        20         3       -1.651255e+00
        21         3       -6.488099e-01
        22         3       -5.569334e-01
        23         3       -1.250807e+00
        24         3        2.497857e+00
        25         3       -6.349471e-01
        26         3       -8.499684e-01
        27         3       -5.056353e-01
        28         3       -1.358962e-01
        29         3        4.481420e-01
        30         3        2.477428e+00
        31         3       -5.001783e-01
        32         3       -9.245375e-01
        33         3        6.678221e-01
        34         3        1.925670e-01
        35         3       -1.857033e+00
        36         3        7.358240e-02
        37         3       -5.580565e-01
        38         3       -4.883162e-01
        39         3       -2.751237e+00
        40         3        7.964801e-01
        41         3        5.479665e-01
        42         3        2.944698e+00
        43         3       -1.052378e-01
        44         3        1.257168e+00
        45         3        3.335041e-01
        46         3        7.545400e-01
        47         3       -2.045345e+00
        48         3       -5.273404e-01
        49         3        3.565210e-01
        50         3       -1.084830e+00
        51         3       -1.034202e-01
        52         3        2.968239e-01
        53         3        9.398099e-01
        54         3       -1.348607e+00
        55         3        9.404089e-01
        56         3        9.956036e-01
        57         3       -5.823336e-01
         1         4       -1.508029e+00
         2         4       -1.270988e+00
         3         4        3.326022e-01
         4         4       -5.013340e-01
         5         4        6.233433e-01
         6         4        8.398126e-01
         7         4        1.393918e+00
         8         4       -1.132984e+00
         9         4       -3.201182e-01
        10         4       -1.971910e-01
        11         4        5.473286e-01
        12         4       -3.658650e-01
        13         4        9.040822e-01
        14         4        4.784498e-01
        15         4        3.641165e-01
        16         4        1.142460e+00
        17         4        8.802591e-01
        18         4       -6.045975e-01
        19         4        1.860494e-01
        20         4       -6.037916e-01
        21         4       -1.224738e+00
        22         4        1.183514e+00
        23         4       -6.078363e-01
        24         4        1.436476e+00
        25         4        6.879592e-01
        26         4       -6.937514e-01
        27         4       -1.103936e+00
        28         4       -1.828459e+00
        29         4       -7.285235e-01
        30         4        1.656395e-01
        31         4        8.376088e-02
        32         4        1.722009e+00
        33         4       -3.268228e-01
        34         4       -1.494713e+00
        35         4        1.142860e+00
        36         4        1.075185e+00
        37         4        9.869950e-01
        38         4       -3.382396e-01
        39         4        8.417236e-01
        40         4       -4.578593e-01
        41         4        1.225728e+00
        42         4        1.191975e+00
        43         4       -2.040866e-01
        44         4        3.857086e-01
        45         4        3.343325e-02
        46         4       -2.425340e+00
        47         4        2.886589e-01
        48         4       -4.626474e-01
        49         4       -1.799226e+00
        50         4        1.034680e+00
        51         4       -4.368224e-01
        52         4        4.855647e-01
        53         4       -9.976363e-01
        54         4       -1.607182e+00
        55         4       -1.183385e+00
        56         4        1.291884e-01
        57         4        4.648391e-01
         1         5        9.751405e-02
         2         5        4.338542e-01
         3         5        1.012254e+00
         4         5        1.344905e-01
         5         5        3.166007e-01
         6         5        6.638470e-01
         7         5        4.409660e-01
         8         5       -3.786034e-01
         9         5       -1.242941e+00
        10         5        2.683347e+00
        11         5        7.944082e-01
        12         5        3.670693e-01
        13         5       -8.900153e-01
        14         5        1.162434e+00
        15         5        1.109308e-01
        16         5        1.100634e+00
        17         5       -1.822077e-01
        18         5       -1.802987e-01
        19         5       -2.893214e-01
        20         5        4.886614e-01
        21         5        3.951936e-01
        22         5       -7.344489e-01
        23         5       -9.004946e-01
        24         5        1.250604e+00
        25         5        1.385883e+00
        26         5       -4.769315e-01
        27         5        1.655371e+00
        28         5        2.180308e+00
        29         5       -1.264425e+00
        30         5        8.692948e-01
        31         5       -1.134984e+00
        32         5       -3.166425e-01
        33         5       -5.881286e-01
        34         5       -1.060389e+00
        35         5        9.700809e-01
        36         5        3.072978e-01
        37         5        4.174045e-01
        38         5        1.399459e+00
        39         5       -5.818373e-02
        40         5       -3.800869e-01
        41         5       -9.554863e-01
        42         5       -6.860506e-02
        43         5       -1.118054e+00
        44         5       -9.948532e-01
        45         5        9.762775e-01
        46         5       -6.463648e-01
        47         5        4.825540e-01
        48         5       -1.317947e-01
        49         5        1.531427e+00
        50         5       -2.159373e+00
        51         5        1.207295e+00
        52         5       -9.932756e-01
        53         5        3.631508e-01
        54         5        5.974838e-01
        55         5        1.754391e+00
        56         5       -1.179741e+00
        57         5       -5.467073e-01
;

param theta:=
    1        9.268345e-01
    2        1.689872e+00
    3        6.899130e-01
    4       -8.235082e-01
    5        2.987658e-01
;
param X_true:=
    1        2.093087e+00
    2        1.245484e+00
    3        1.908879e+00
    4       -5.749512e-01
    5       -1.545068e-01
    6       -2.895393e+00
    7        1.024541e+00
    8        4.954118e-01
    9        8.232169e-01
   10        4.863046e+00
   11       -2.058652e+00
   12       -3.743033e-01
   13        7.792268e-01
   14        1.935299e+00
   15       -1.223335e+00
   16       -1.032446e+00
   17        6.020604e-01
   18       -1.663697e+00
   19       -2.762745e+00
   20       -2.183171e+00
   21        9.826221e-01
   22       -1.581404e+00
   23        3.338529e-01
   24        1.104067e+00
   25       -1.474223e+00
   26       -1.019964e+00
   27        2.778822e+00
   28        5.078052e-01
   29        3.933425e-01
   30        5.899063e+00
   31       -2.290137e+00
   32       -4.684997e+00
   33        5.646054e-01
   34       -1.475556e+00
   35       -6.384934e-01
   36        8.072420e-02
   37        9.504266e-01
   38        3.307483e-01
   39       -2.006128e+00
   40        6.835273e-01
   41       -6.390862e-01
   42        2.332543e+00
   43        2.131169e-01
   44       -8.566365e-01
   45       -6.100526e-01
   46        1.012482e+00
   47       -1.725444e+00
   48       -3.777537e+00
   49        9.592491e-01
   50       -3.965621e+00
   51       -2.226094e-01
   52        2.021309e+00
   53        9.278412e-01
   54        1.655757e+00
   55       -1.177569e+00
   56        2.061800e+00
   57       -7.704365e-01
;
param X:=
    1        1.157223e+00
    2       -3.889604e-01
    3        8.443727e-01
    4       -1.494178e-01
    5        6.095061e-01
    6       -8.319661e-01
    7        1.241480e+00
    8        8.791846e-02
    9       -1.246420e-01
   10       -4.318419e-02
   11       -2.058652e+00
   12        8.086128e-01
   13       -8.649123e-02
   14        1.935299e+00
   15       -9.273028e-01
   16       -1.032446e+00
   17        1.190949e+00
   18       -2.563917e+00
   19       -3.624504e-01
   20        3.020953e-01
   21        1.110246e-01
   22       -1.072152e+00
   23        1.402080e+00
   24       -8.274422e-01
   25       -1.599269e-01
   26        6.880751e-02
   27        2.778822e+00
   28        5.078052e-01
   29        3.933425e-01
   30        5.267537e-01
   31        1.533203e+00
   32       -2.188834e+00
   33       -7.413866e-01
   34       -1.419277e+00
   35        1.597109e-01
   36        8.072420e-02
   37        9.504266e-01
   38        1.367522e-01
   39        1.222384e+00
   40        6.986108e-01
   41        1.079643e+00
   42       -6.820023e-01
   43       -2.170089e-01
   44       -5.523126e-01
   45       -6.100526e-01
   46       -3.861880e-01
   47        9.573268e-01
   48       -3.777537e+00
   49        2.992257e-01
   50       -1.638495e+00
   51       -2.226094e-01
   52        1.547544e+00
   53        3.810829e-01
   54        7.623480e-01
   55       -2.101479e+00
   56       -1.025467e+00
   57        5.870280e-01
;
param outliervec:=
    1    1
    2    1
    3    1
    4    1
    5    1
    6    1
    7    1
    8    1
    9    1
   10    1
   11    0
   12    1
   13    1
   14    0
   15    1
   16    0
   17    1
   18    1
   19    1
   20    1
   21    1
   22    1
   23    1
   24    1
   25    1
   26    1
   27    0
   28    0
   29    0
   30    1
   31    1
   32    1
   33    1
   34    1
   35    1
   36    0
   37    0
   38    1
   39    1
   40    1
   41    1
   42    1
   43    1
   44    1
   45    0
   46    1
   47    1
   48    0
   49    1
   50    1
   51    0
   52    1
   53    1
   54    1
   55    1
   56    1
   57    1
; 
param greedy_time :=         2.110927e-01
;